sifdecoder -A pc64.lnx.gfo -st   WATER

 Problem name: WATER

 Double precision version will be formed

 The objective function uses 1 linear group
 The objective function uses 8 nonlinear groups
 
 There are 10 linear equality constraints
 
 There are 31 variables bounded from below and above 
 
 
 File successfully decoded
 CUTEST: tools (double precision version) compiled successfully
 CUTEst: ipopt (double precision version) compiled successfully

******************************************************************************
This program contains Ipopt, a library for large-scale nonlinear optimization.
 Ipopt is released as open source code under the Eclipse Public License (EPL).
         For more information visit http://projects.coin-or.org/Ipopt
******************************************************************************

This is Ipopt version trunk, running with linear solver ma57.

Number of nonzeros in equality constraint Jacobian...:       62
Number of nonzeros in inequality constraint Jacobian.:        0
Number of nonzeros in Lagrangian Hessian.............:        8

Total number of variables............................:       31
                     variables with only lower bounds:        0
                variables with lower and upper bounds:       31
                     variables with only upper bounds:        0
Total number of equality constraints.................:       10
Total number of inequality constraints...............:        0
        inequality constraints with only lower bounds:        0
   inequality constraints with lower and upper bounds:        0
        inequality constraints with only upper bounds:        0

iter    objective    inf_pr   inf_du lg(mu)  ||d||  lg(rg) alpha_du alpha_pr  ls
   0  3.5499965e+00 1.12e+03 6.43e+00  -1.0 0.00e+00    -  0.00e+00 0.00e+00   0
   1  3.6016776e+00 1.12e+03 6.43e+00  -1.0 3.94e+02    -  2.51e-05 2.51e-05h  1
   2  3.9996619e+00 1.12e+03 6.68e+00  -1.0 8.62e+02    -  2.31e-05 1.09e-04h  1
   3  5.3887407e+00 1.12e+03 7.07e+00  -1.0 7.45e+02    -  1.03e-04 1.90e-04h  1
   4  1.8241304e+01 1.12e+03 7.18e+00  -1.0 6.59e+02    -  2.51e-04 1.40e-03h  1
   5  1.1958659e+02 1.10e+03 7.26e+00  -1.0 6.99e+02    -  1.49e-03 1.21e-02h  1
   6  8.6544081e+01 1.10e+03 7.23e+00  -1.0 1.48e+03    -  4.88e-03 4.79e-03f  1
   7  1.0691573e+02 1.09e+03 7.03e+00  -1.0 9.44e+02    -  1.67e-02 7.46e-03h  1
   8  1.2317225e+03 8.44e+02 8.00e+00  -1.0 8.96e+02    -  5.03e-02 2.26e-01h  1
   9  1.4963987e+03 8.03e+02 7.47e+00  -1.0 6.93e+02    -  6.05e-02 4.88e-02h  1
iter    objective    inf_pr   inf_du lg(mu)  ||d||  lg(rg) alpha_du alpha_pr  ls
  10  3.5581979e+03 5.16e+02 1.06e+01  -1.0 7.96e+02    -  1.06e-03 3.58e-01h  1
  11  9.0690874e+03 1.14e+02 1.04e+01  -1.0 4.32e+02    -  5.29e-02 7.78e-01h  1
  12  1.0552220e+04 4.18e+01 9.12e+00  -1.0 2.13e+02    -  6.09e-02 6.34e-01h  1
  13  1.0777789e+04 8.02e+00 7.46e+00  -1.0 6.02e+01    -  1.62e-01 8.08e-01h  1
  14  1.0537106e+04 2.57e+00 7.28e+00  -1.0 1.95e+02    -  4.89e-02 6.80e-01f  1
  15  1.0535787e+04 2.49e+00 9.03e-01  -1.0 5.98e+01    -  9.13e-01 2.91e-02f  1
  16  1.0554363e+04 2.34e-09 4.96e-02  -1.0 3.53e+01    -  9.32e-01 1.00e+00h  1
  17  1.0553319e+04 3.06e-11 1.58e-05  -1.0 2.13e+00    -  1.00e+00 1.00e+00f  1
  18  1.0549498e+04 2.12e-11 5.18e-06  -2.5 2.96e-01    -  1.00e+00 1.00e+00f  1
  19  1.0549385e+04 6.75e-13 3.10e-08  -3.8 1.59e-02    -  1.00e+00 1.00e+00f  1
iter    objective    inf_pr   inf_du lg(mu)  ||d||  lg(rg) alpha_du alpha_pr  ls
  20  1.0549380e+04 7.68e-14 3.51e-10  -5.7 4.81e-04    -  1.00e+00 1.00e+00f  1
  21  1.0549379e+04 1.18e-12 3.57e-04  -8.6 5.82e-06    -  1.00e+00 9.81e-01f  1
  22  1.0549379e+04 2.53e-10 1.38e+00  -8.6 1.01e-07    -  6.53e-01 1.00e+00f  1
  23  1.0549379e+04 9.30e-11 1.36e-14  -8.6 1.76e-08    -  1.00e+00 1.00e+00h  1

Number of Iterations....: 23

                                   (scaled)                 (unscaled)
Objective...............:   5.0235140305421010e+03    1.0549379464138412e+04
Dual infeasibility......:   1.3621284712719235e-14    2.8604697896710396e-14
Constraint violation....:   9.2973189371851744e-11    9.2973189371851744e-11
Complementarity.........:   3.9463030765198150e-09    8.2872364606916123e-09
Overall NLP error.......:   3.9463030765198150e-09    8.2872364606916123e-09


Number of objective function evaluations             = 24
Number of objective gradient evaluations             = 24
Number of equality constraint evaluations            = 24
Number of inequality constraint evaluations          = 0
Number of equality constraint Jacobian evaluations   = 24
Number of inequality constraint Jacobian evaluations = 0
Number of Lagrangian Hessian evaluations             = 23
Total CPU secs in IPOPT (w/o function evaluations)   =      0.055
Total CPU secs in NLP function evaluations           =      0.004

EXIT: Optimal Solution Found.

************************ CUTEst statistics ************************


 Package used            :  IPOPT
 Problem                 :  WATER     
 # variables             =              31
 # constraints           =              10
 # objective functions   =        0.4900000E+02
 # objective gradients   =        0.2500000E+02
 # objective Hessians    =        0.2400000E+02
 # Hessian-vector prdct  =        0.0000000E+00
 # constraints functions =        0.5000000E+02
 # constraints gradients =        0.2600000E+02
 # constraints Hessians  =        0.2400000E+02
 Exit code               =               0
 Final f                 =        1.0549379464138412D+04
 Bounds feasibility      =        9.8092230517979593D-09
 Set up time             =            0.00 seconds
 Solve time              =            0.12 seconds


******************************************************************

